p cnf 209 256
6 0
7 0
8 0
9 0
34 1 -2 0
-34 -1 0
-34 2 0
-35 1 34 0
35 -1 0
35 -34 0
36 -1 -2 0
-36 1 0
-36 2 0
37 -3 -35 0
-37 3 0
-37 35 0
38 -1 -2 -3 0
-38 1 0
-38 2 0
-38 3 0
-39 -36 38 0
39 36 0
39 -38 0
-40 37 -39 0
40 -37 0
40 39 0
41 -2 -3 0
-41 2 0
-41 3 0
-42 -2 41 0
42 2 0
42 -41 0
-43 3 -42 0
43 -3 0
43 42 0
44 1 -43 0
-44 -1 0
-44 43 0
-45 1 44 0
45 -1 0
45 -44 0
46 -4 -45 0
-46 4 0
-46 45 0
47 -1 2 -3 -4 0
-47 1 0
-47 -2 0
-47 3 0
-47 4 0
48 -1 -2 3 -4 0
-48 1 0
-48 2 0
-48 -3 0
-48 4 0
49 -1 -2 -3 -4 0
-49 1 0
-49 2 0
-49 3 0
-49 4 0
-50 48 49 0
50 -48 0
50 -49 0
-51 47 50 0
51 -47 0
51 -50 0
52 1 -2 -3 -4 0
-52 -1 0
-52 2 0
-52 3 0
-52 4 0
-53 51 52 0
53 -51 0
53 -52 0
-54 -40 53 0
54 40 0
54 -53 0
-55 46 -54 0
55 -46 0
55 54 0
82 -55 0
-82 55 0
83 1 -2 3 -4 0
-83 -1 0
-83 2 0
-83 -3 0
-83 4 0
-84 48 83 0
84 -48 0
84 -83 0
85 -1 2 3 -4 0
-85 1 0
-85 -2 0
-85 -3 0
-85 4 0
86 1 2 -3 -4 0
-86 -1 0
-86 -2 0
-86 3 0
-86 4 0
-87 47 86 0
87 -47 0
87 -86 0
-88 85 87 0
88 -85 0
88 -87 0
-89 84 88 0
89 -84 0
89 -88 0
-90 49 52 0
90 -49 0
90 -52 0
-91 89 90 0
91 -89 0
91 -90 0
-92 -45 91 0
92 45 0
92 -91 0
-93 4 -92 0
93 -4 0
93 92 0
97 -93 0
-97 93 0
98 2 -4 0
-98 -2 0
-98 4 0
-99 2 98 0
99 -2 0
99 -98 0
100 3 -99 0
-100 -3 0
-100 99 0
-101 3 100 0
101 -3 0
101 -100 0
102 -1 -101 0
-102 1 0
-102 101 0
103 3 -4 0
-103 -3 0
-103 4 0
-104 3 103 0
104 -3 0
104 -103 0
105 -2 -104 0
-105 2 0
-105 104 0
106 2 -3 -4 0
-106 -2 0
-106 3 0
-106 4 0
-107 105 106 0
107 -105 0
107 -106 0
108 1 -107 0
-108 -1 0
-108 107 0
-109 102 108 0
109 -102 0
109 -108 0
117 -109 0
-117 109 0
-118 -82 117 0
118 82 0
118 -117 0
-119 97 -118 0
119 -97 0
119 118 0
120 -4 -40 0
-120 4 0
-120 40 0
125 -1 -2 -3 -4 0
-125 1 0
-125 2 0
-125 3 0
-125 4 0
-126 125 0
126 -125 0
-127 -38 49 0
127 38 0
127 -49 0
-128 120 -127 0
128 -120 0
128 127 0
140 -128 0
-140 128 0
-163 126 0
163 -126 0
-164 -49 163 0
164 49 0
164 -163 0
-165 140 -164 0
165 -140 0
165 164 0
166 1 -4 0
-166 -1 0
-166 4 0
-167 1 166 0
167 -1 0
167 -166 0
168 -2 -167 0
-168 2 0
-168 167 0
169 -1 2 -4 0
-169 1 0
-169 -2 0
-169 4 0
-170 168 169 0
170 -168 0
170 -169 0
171 -3 -170 0
-171 3 0
-171 170 0
-172 48 171 0
172 -48 0
172 -171 0
175 -1 3 -4 0
-175 1 0
-175 -3 0
-175 4 0
176 -3 -167 0
-176 3 0
-176 167 0
-177 175 176 0
177 -175 0
177 -176 0
178 -2 -177 0
-178 2 0
-178 177 0
-179 47 178 0
179 -47 0
179 -178 0
180 -179 0
-180 179 0
-181 180 0
181 -180 0
182 3 -181 0
-182 -3 0
-182 181 0
-183 182 0
183 -182 0
185 -2 -179 0
-185 2 0
-185 179 0
-187 185 0
187 -185 0
189 -179 0
-189 179 0
-191 189 0
191 -189 0
197 -179 0
-197 179 0
-199 197 0
199 -197 0
-208 -119 0
208 119 0
165 -208 0
